Tried aggregator 2 times.
MIP Presolve eliminated 5 rows and 1 columns.
MIP Presolve modified 40 coefficients.
Aggregator did 40 substitutions.
Reduced MIP has 240 rows, 216 columns, and 625 nonzeros.
Reduced MIP has 125 binaries, 11 generals, 0 SOSs, and 40 indicators.
Presolve time = 0.00 sec. (0.51 ticks)
Found incumbent of value 20.000000 after 0.00 sec. (0.92 ticks)
Probing fixed 30 vars, tightened 60 bounds.
Probing time = 0.01 sec. (1.91 ticks)
Tried aggregator 2 times.
MIP Presolve eliminated 47 rows and 47 columns.
MIP Presolve modified 160 coefficients.
Aggregator did 63 substitutions.
Reduced MIP has 130 rows, 106 columns, and 425 nonzeros.
Reduced MIP has 75 binaries, 21 generals, 0 SOSs, and 20 indicators.
Presolve time = 0.00 sec. (0.75 ticks)
Probing time = 0.00 sec. (0.14 ticks)
Tried aggregator 1 time.
Reduced MIP has 130 rows, 106 columns, and 425 nonzeros.
Reduced MIP has 75 binaries, 21 generals, 0 SOSs, and 20 indicators.
Presolve time = 0.00 sec. (0.20 ticks)
Probing time = 0.00 sec. (0.14 ticks)
Clique table members: 50.
MIP emphasis: balance optimality and feasibility.
MIP search method: dynamic search.
Parallel mode: deterministic, using up to 4 threads.
Root relaxation solution time = 0.00 sec. (0.30 ticks)

        Nodes                                         Cuts/
   Node  Left     Objective  IInf  Best Integer    Best Bound    ItCnt     Gap

*     0+    0                           20.0000        2.0000       45   90.00%
      0     0        2.0000    55       20.0000        2.0000       45   90.00%
      0     0        2.0000    21       20.0000      Cuts: 12       60   90.00%
      0     0        2.0000     9       20.0000      Cuts: 32       86   90.00%
      0     0        2.0000    37       20.0000      Cuts: 16      118   90.00%
      0     0        2.0000    20       20.0000      Cuts: 16      135   90.00%
      0     0        2.0000    23       20.0000      Cuts: 10      147   90.00%
*     0+    0                            5.0000        2.0000      147   60.00%
*     0+    0                            3.0000        2.0000      147   33.33%
      0     0        cutoff              3.0000        3.0000      147    0.00%
Elapsed time = 0.06 sec. (15.23 ticks, tree = 0.00 MB, solutions = 3)

Clique cuts applied:  1
Implied bound cuts applied:  6
Mixed integer rounding cuts applied:  5
Zero-half cuts applied:  4
Gomory fractional cuts applied:  1

Root node processing (before b&c):
  Real time             =    0.06 sec. (15.24 ticks)
Parallel b&c, 4 threads:
  Real time             =    0.00 sec. (0.00 ticks)
  Sync time (average)   =    0.00 sec.
  Wait time (average)   =    0.00 sec.
                          ------------
Total (root+branch&cut) =    0.06 sec. (15.24 ticks)
